TCS_Benchmarks/redos_fix/snort1_output_distinct_2910_2909_12_0.txt
(\s+)([^>]*)
(\s+)([^>]*[pP][aA][dD][dD][iI][nN][gG]-[lL][eE][fF][tT]:\-1000[pP][xX];)([^>]*)